p tw 256 4382
1 245
1 97
1 119
1 139
1 160
1 202
1 158
1 194
1 215
1 236
1 255
1 23
1 44
1 64
1 85
1 16
1 90
1 103
1 116
1 128
1 140
1 152
1 164
1 2
1 25
1 147
1 185
1 197
1 209
1 221
1 233
1 95
1 115
1 134
1 154
1 173
1 69
1 184
1 204
1 223
1 242
1 8
1 28
1 48
1 67
2 87
2 108
2 130
2 150
2 171
2 58
2 77
2 104
2 122
2 141
2 159
2 113
2 91
2 186
2 204
2 25
2 147
2 185
2 197
2 209
2 221
2 86
2 106
2 126
2 145
2 165
2 235
2 176
2 195
2 215
2 234
2 253
2 20
2 39
2 59
2 78
113 114
113 190
113 211
113 231
113 252
113 20
113 40
113 61
113 82
113 91
113 186
113 204
113 180
113 191
113 202
113 213
113 224
113 235
113 246
113 3
113 14
113 36
113 47
113 58
113 102
113 188
113 207
113 227
113 247
113 11
113 32
113 51
113 71
180 125
180 192
180 212
180 232
180 253
180 21
180 42
180 62
180 83
180 102
180 187
180 205
180 223
180 191
180 202
180 213
180 224
180 235
180 246
180 3
180 14
180 36
180 47
180 58
180 114
180 189
180 208
180 228
180 248
180 12
180 33
180 52
180 72
191 136
191 193
191 214
191 234
191 254
191 22
191 43
191 63
191 84
191 114
191 188
191 206
191 225
191 242
191 202
191 213
191 224
191 235
191 246
191 3
191 14
191 36
191 47
191 58
191 125
191 190
191 210
191 229
191 249
191 13
191 34
191 54
191 73
202 158
202 194
202 215
202 236
202 255
202 23
202 44
202 64
202 85
202 125
202 189
202 207
202 226
202 243
202 8
202 213
202 224
202 235
202 246
202 3
202 14
202 36
202 47
202 58
202 136
202 192
202 211
202 230
202 250
202 15
202 35
202 55
202 74
213 169
213 195
213 216
213 237
213 256
213 24
213 45
213 66
213 136
213 190
213 208
213 227
213 244
213 9
213 28
213 224
213 235
213 246
213 3
213 14
213 36
213 47
213 58
213 158
213 193
213 212
213 231
213 251
213 18
213 37
213 56
213 75
224 176
224 196
224 217
224 238
224 5
224 26
224 46
224 158
224 192
224 210
224 228
224 247
224 10
224 30
224 48
224 235
224 246
224 3
224 14
224 36
224 47
224 58
224 169
224 194
224 214
224 232
224 252
224 19
224 38
224 57
224 76
235 177
235 198
235 218
235 239
235 6
235 27
235 169
235 193
235 211
235 229
235 248
235 11
235 31
235 49
235 67
235 246
235 3
235 14
235 36
235 47
235 58
235 176
235 195
235 215
235 234
235 253
235 20
235 39
235 59
235 78
246 178
246 199
246 219
246 240
246 7
246 176
246 194
246 212
246 230
246 249
246 12
246 32
246 50
246 68
246 3
246 14
246 36
246 47
246 58
246 177
246 196
246 216
246 236
246 254
246 21
246 40
246 60
246 79
3 179
3 200
3 220
3 241
3 177
3 195
3 214
3 231
3 250
3 13
3 33
3 51
3 70
3 14
3 36
3 47
3 58
3 178
3 198
3 217
3 237
3 255
3 22
3 42
3 61
3 81
14 181
14 201
14 222
14 178
14 196
14 215
14 232
14 251
14 15
14 34
14 52
14 71
14 36
14 47
14 58
14 179
14 199
14 218
14 238
14 256
14 23
14 43
14 62
14 82
25 88
25 109
25 131
25 151
25 172
25 86
25 105
25 123
25 142
25 160
25 102
25 187
25 205
25 223
25 147
25 185
25 197
25 209
25 221
25 87
25 107
25 127
25 146
25 166
25 177
25 196
25 216
25 236
25 254
25 21
25 40
25 60
25 79
36 182
36 203
36 179
36 198
36 216
36 234
36 252
36 18
36 35
36 54
36 72
36 47
36 58
36 181
36 200
36 219
36 239
36 5
36 24
36 44
36 63
36 83
47 183
47 181
47 199
47 217
47 236
47 253
47 19
47 37
47 55
47 73
47 58
47 182
47 201
47 220
47 240
47 6
47 26
47 45
47 64
47 84
58 182
58 200
58 218
58 237
58 254
58 20
58 38
58 56
58 74
58 183
58 203
58 222
58 241
58 7
58 27
58 46
58 66
58 85
69 186
69 206
69 227
69 248
69 13
69 35
69 56
69 76
69 80
69 91
69 102
69 114
69 125
69 136
69 158
69 169
69 176
69 177
69 178
69 179
69 181
69 182
69 183
69 184
69 204
69 223
69 242
69 8
69 28
69 48
69 67
80 187
80 207
80 228
80 249
80 15
80 37
80 57
80 78
80 184
80 91
80 102
80 114
80 125
80 136
80 158
80 169
80 176
80 177
80 178
80 179
80 181
80 182
80 183
80 186
80 205
80 225
80 243
80 9
80 30
80 49
80 68
91 188
91 208
91 229
91 250
91 18
91 38
91 59
91 79
91 186
91 204
91 102
91 114
91 125
91 136
91 158
91 169
91 176
91 177
91 178
91 179
91 181
91 182
91 183
91 187
91 206
91 226
91 244
91 10
91 31
91 50
91 70
102 189
102 210
102 230
102 251
102 19
102 39
102 60
102 81
102 187
102 205
102 223
102 114
102 125
102 136
102 158
102 169
102 176
102 177
102 178
102 179
102 181
102 182
102 183
102 188
102 207
102 227
102 247
102 11
102 32
102 51
102 71
114 190
114 211
114 231
114 252
114 20
114 40
114 61
114 82
114 188
114 206
114 225
114 242
114 125
114 136
114 158
114 169
114 176
114 177
114 178
114 179
114 181
114 182
114 183
114 189
114 208
114 228
114 248
114 12
114 33
114 52
114 72
125 192
125 212
125 232
125 253
125 21
125 42
125 62
125 83
125 189
125 207
125 226
125 243
125 8
125 136
125 158
125 169
125 176
125 177
125 178
125 179
125 181
125 182
125 183
125 190
125 210
125 229
125 249
125 13
125 34
125 54
125 73
136 193
136 214
136 234
136 254
136 22
136 43
136 63
136 84
136 190
136 208
136 227
136 244
136 9
136 28
136 158
136 169
136 176
136 177
136 178
136 179
136 181
136 182
136 183
136 192
136 211
136 230
136 250
136 15
136 35
136 55
136 74
147 89
147 110
147 132
147 153
147 87
147 106
147 124
147 143
147 161
147 188
147 206
147 225
147 242
147 185
147 197
147 209
147 221
147 88
147 108
147 129
147 148
147 167
147 178
147 198
147 217
147 237
147 255
147 22
147 42
147 61
147 81
158 194
158 215
158 236
158 255
158 23
158 44
158 64
158 85
158 192
158 210
158 228
158 247
158 10
158 30
158 48
158 169
158 176
158 177
158 178
158 179
158 181
158 182
158 183
158 193
158 212
158 231
158 251
158 18
158 37
158 56
158 75
169 195
169 216
169 237
169 256
169 24
169 45
169 66
169 193
169 211
169 229
169 248
169 11
169 31
169 49
169 67
169 176
169 177
169 178
169 179
169 181
169 182
169 183
169 194
169 214
169 232
169 252
169 19
169 38
169 57
169 76
176 196
176 217
176 238
176 5
176 26
176 46
176 194
176 212
176 230
176 249
176 12
176 32
176 50
176 68
176 177
176 178
176 179
176 181
176 182
176 183
176 195
176 215
176 234
176 253
176 20
176 39
176 59
176 78
177 198
177 218
177 239
177 6
177 27
177 195
177 214
177 231
177 250
177 13
177 33
177 51
177 70
177 178
177 179
177 181
177 182
177 183
177 196
177 216
177 236
177 254
177 21
177 40
177 60
177 79
178 199
178 219
178 240
178 7
178 196
178 215
178 232
178 251
178 15
178 34
178 52
178 71
178 179
178 181
178 182
178 183
178 198
178 217
178 237
178 255
178 22
178 42
178 61
178 81
179 200
179 220
179 241
179 198
179 216
179 234
179 252
179 18
179 35
179 54
179 72
179 181
179 182
179 183
179 199
179 218
179 238
179 256
179 23
179 43
179 62
179 82
181 201
181 222
181 199
181 217
181 236
181 253
181 19
181 37
181 55
181 73
181 182
181 183
181 200
181 219
181 239
181 5
181 24
181 44
181 63
181 83
182 203
182 200
182 218
182 237
182 254
182 20
182 38
182 56
182 74
182 183
182 201
182 220
182 240
182 6
182 26
182 45
182 64
182 84
183 201
183 219
183 238
183 255
183 21
183 39
183 57
183 75
183 203
183 222
183 241
183 7
183 27
183 46
183 66
183 85
184 205
184 226
184 247
184 12
184 34
184 55
184 75
184 186
184 187
184 188
184 189
184 190
184 192
184 193
184 194
184 195
184 196
184 198
184 199
184 200
184 201
184 203
184 204
184 223
184 242
184 8
184 28
184 48
184 67
185 92
185 111
185 133
185 88
185 107
185 126
185 144
185 162
185 189
185 207
185 226
185 243
185 8
185 197
185 209
185 221
185 89
185 109
185 130
185 149
185 168
185 199
185 218
185 238
185 256
185 23
185 43
185 62
185 82
186 206
186 227
186 248
186 13
186 35
186 56
186 76
186 204
186 187
186 188
186 189
186 190
186 192
186 193
186 194
186 195
186 196
186 198
186 199
186 200
186 201
186 203
186 205
186 225
186 243
186 9
186 30
186 49
186 68
187 207
187 228
187 249
187 15
187 37
187 57
187 78
187 205
187 223
187 188
187 189
187 190
187 192
187 193
187 194
187 195
187 196
187 198
187 199
187 200
187 201
187 203
187 206
187 226
187 244
187 10
187 31
187 50
187 70
188 208
188 229
188 250
188 18
188 38
188 59
188 79
188 206
188 225
188 242
188 189
188 190
188 192
188 193
188 194
188 195
188 196
188 198
188 199
188 200
188 201
188 203
188 207
188 227
188 247
188 11
188 32
188 51
188 71
189 210
189 230
189 251
189 19
189 39
189 60
189 81
189 207
189 226
189 243
189 8
189 190
189 192
189 193
189 194
189 195
189 196
189 198
189 199
189 200
189 201
189 203
189 208
189 228
189 248
189 12
189 33
189 52
189 72
190 211
190 231
190 252
190 20
190 40
190 61
190 82
190 208
190 227
190 244
190 9
190 28
190 192
190 193
190 194
190 195
190 196
190 198
190 199
190 200
190 201
190 203
190 210
190 229
190 249
190 13
190 34
190 54
190 73
192 212
192 232
192 253
192 21
192 42
192 62
192 83
192 210
192 228
192 247
192 10
192 30
192 48
192 193
192 194
192 195
192 196
192 198
192 199
192 200
192 201
192 203
192 211
192 230
192 250
192 15
192 35
192 55
192 74
193 214
193 234
193 254
193 22
193 43
193 63
193 84
193 211
193 229
193 248
193 11
193 31
193 49
193 67
193 194
193 195
193 196
193 198
193 199
193 200
193 201
193 203
193 212
193 231
193 251
193 18
193 37
193 56
193 75
194 215
194 236
194 255
194 23
194 44
194 64
194 85
194 212
194 230
194 249
194 12
194 32
194 50
194 68
194 195
194 196
194 198
194 199
194 200
194 201
194 203
194 214
194 232
194 252
194 19
194 38
194 57
194 76
195 216
195 237
195 256
195 24
195 45
195 66
195 214
195 231
195 250
195 13
195 33
195 51
195 70
195 196
195 198
195 199
195 200
195 201
195 203
195 215
195 234
195 253
195 20
195 39
195 59
195 78
196 217
196 238
196 5
196 26
196 46
196 215
196 232
196 251
196 15
196 34
196 52
196 71
196 198
196 199
196 200
196 201
196 203
196 216
196 236
196 254
196 21
196 40
196 60
196 79
197 93
197 112
197 89
197 108
197 127
197 145
197 163
197 208
197 227
197 244
197 9
197 28
197 209
197 221
197 92
197 110
197 131
197 150
197 170
197 200
197 219
197 239
197 5
197 24
197 44
197 63
197 83
198 218
198 239
198 6
198 27
198 216
198 234
198 252
198 18
198 35
198 54
198 72
198 199
198 200
198 201
198 203
198 217
198 237
198 255
198 22
198 42
198 61
198 81
199 219
199 240
199 7
199 217
199 236
199 253
199 19
199 37
199 55
199 73
199 200
199 201
199 203
199 218
199 238
199 256
199 23
199 43
199 62
199 82
200 220
200 241
200 218
200 237
200 254
200 20
200 38
200 56
200 74
200 201
200 203
200 219
200 239
200 5
200 24
200 44
200 63
200 83
201 222
201 219
201 238
201 255
201 21
201 39
201 57
201 75
201 203
201 220
201 240
201 6
201 26
201 45
201 64
201 84
203 220
203 239
203 256
203 22
203 40
203 59
203 76
203 222
203 241
203 7
203 27
203 46
203 66
203 85
204 225
204 244
204 11
204 33
204 54
204 74
204 205
204 206
204 207
204 208
204 210
204 211
204 212
204 214
204 215
204 216
204 217
204 218
204 219
204 220
204 222
204 223
204 242
204 8
204 28
204 48
204 67
205 226
205 247
205 12
205 34
205 55
205 75
205 223
205 206
205 207
205 208
205 210
205 211
205 212
205 214
205 215
205 216
205 217
205 218
205 219
205 220
205 222
205 225
205 243
205 9
205 30
205 49
205 68
206 227
206 248
206 13
206 35
206 56
206 76
206 225
206 242
206 207
206 208
206 210
206 211
206 212
206 214
206 215
206 216
206 217
206 218
206 219
206 220
206 222
206 226
206 244
206 10
206 31
206 50
206 70
207 228
207 249
207 15
207 37
207 57
207 78
207 226
207 243
207 8
207 208
207 210
207 211
207 212
207 214
207 215
207 216
207 217
207 218
207 219
207 220
207 222
207 227
207 247
207 11
207 32
207 51
207 71
208 229
208 250
208 18
208 38
208 59
208 79
208 227
208 244
208 9
208 28
208 210
208 211
208 212
208 214
208 215
208 216
208 217
208 218
208 219
208 220
208 222
208 228
208 248
208 12
208 33
208 52
208 72
209 94
209 92
209 109
209 129
209 146
209 165
209 210
209 228
209 247
209 10
209 30
209 48
209 221
209 93
209 111
209 132
209 151
209 171
209 220
209 240
209 6
209 26
209 45
209 64
209 84
210 230
210 251
210 19
210 39
210 60
210 81
210 228
210 247
210 10
210 30
210 48
210 211
210 212
210 214
210 215
210 216
210 217
210 218
210 219
210 220
210 222
210 229
210 249
210 13
210 34
210 54
210 73
211 231
211 252
211 20
211 40
211 61
211 82
211 229
211 248
211 11
211 31
211 49
211 67
211 212
211 214
211 215
211 216
211 217
211 218
211 219
211 220
211 222
211 230
211 250
211 15
211 35
211 55
211 74
212 232
212 253
212 21
212 42
212 62
212 83
212 230
212 249
212 12
212 32
212 50
212 68
212 214
212 215
212 216
212 217
212 218
212 219
212 220
212 222
212 231
212 251
212 18
212 37
212 56
212 75
214 234
214 254
214 22
214 43
214 63
214 84
214 231
214 250
214 13
214 33
214 51
214 70
214 215
214 216
214 217
214 218
214 219
214 220
214 222
214 232
214 252
214 19
214 38
214 57
214 76
215 236
215 255
215 23
215 44
215 64
215 85
215 232
215 251
215 15
215 34
215 52
215 71
215 216
215 217
215 218
215 219
215 220
215 222
215 234
215 253
215 20
215 39
215 59
215 78
216 237
216 256
216 24
216 45
216 66
216 234
216 252
216 18
216 35
216 54
216 72
216 217
216 218
216 219
216 220
216 222
216 236
216 254
216 21
216 40
216 60
216 79
217 238
217 5
217 26
217 46
217 236
217 253
217 19
217 37
217 55
217 73
217 218
217 219
217 220
217 222
217 237
217 255
217 22
217 42
217 61
217 81
218 239
218 6
218 27
218 237
218 254
218 20
218 38
218 56
218 74
218 219
218 220
218 222
218 238
218 256
218 23
218 43
218 62
218 82
219 240
219 7
219 238
219 255
219 21
219 39
219 57
219 75
219 220
219 222
219 239
219 5
219 24
219 44
219 63
219 83
220 241
220 239
220 256
220 22
220 40
220 59
220 76
220 222
220 240
220 6
220 26
220 45
220 64
220 84
221 93
221 110
221 130
221 148
221 166
221 229
221 248
221 11
221 31
221 49
221 67
221 94
221 112
221 133
221 153
221 172
221 222
221 241
221 7
221 27
221 46
221 66
221 85
222 240
222 5
222 23
222 42
222 60
222 78
222 241
222 7
222 27
222 46
222 66
222 85
223 243
223 10
223 32
223 52
223 73
223 225
223 226
223 227
223 228
223 229
223 230
223 231
223 232
223 234
223 236
223 237
223 238
223 239
223 240
223 241
223 242
223 8
223 28
223 48
223 67
225 244
225 11
225 33
225 54
225 74
225 242
225 226
225 227
225 228
225 229
225 230
225 231
225 232
225 234
225 236
225 237
225 238
225 239
225 240
225 241
225 243
225 9
225 30
225 49
225 68
226 247
226 12
226 34
226 55
226 75
226 243
226 8
226 227
226 228
226 229
226 230
226 231
226 232
226 234
226 236
226 237
226 238
226 239
226 240
226 241
226 244
226 10
226 31
226 50
226 70
227 248
227 13
227 35
227 56
227 76
227 244
227 9
227 28
227 228
227 229
227 230
227 231
227 232
227 234
227 236
227 237
227 238
227 239
227 240
227 241
227 247
227 11
227 32
227 51
227 71
228 249
228 15
228 37
228 57
228 78
228 247
228 10
228 30
228 48
228 229
228 230
228 231
228 232
228 234
228 236
228 237
228 238
228 239
228 240
228 241
228 248
228 12
228 33
228 52
228 72
229 250
229 18
229 38
229 59
229 79
229 248
229 11
229 31
229 49
229 67
229 230
229 231
229 232
229 234
229 236
229 237
229 238
229 239
229 240
229 241
229 249
229 13
229 34
229 54
229 73
230 251
230 19
230 39
230 60
230 81
230 249
230 12
230 32
230 50
230 68
230 231
230 232
230 234
230 236
230 237
230 238
230 239
230 240
230 241
230 250
230 15
230 35
230 55
230 74
231 252
231 20
231 40
231 61
231 82
231 250
231 13
231 33
231 51
231 70
231 232
231 234
231 236
231 237
231 238
231 239
231 240
231 241
231 251
231 18
231 37
231 56
231 75
232 253
232 21
232 42
232 62
232 83
232 251
232 15
232 34
232 52
232 71
232 234
232 236
232 237
232 238
232 239
232 240
232 241
232 252
232 19
232 38
232 57
232 76
233 96
233 118
233 138
233 159
233 234
233 254
233 22
233 43
233 63
233 84
233 245
233 4
233 17
233 29
233 41
233 53
233 65
233 77
233 86
233 87
233 88
233 89
233 92
233 93
233 94
233 95
233 115
233 134
233 154
233 173
233 242
233 8
233 28
233 48
233 67
234 254
234 22
234 43
234 63
234 84
234 252
234 18
234 35
234 54
234 72
234 236
234 237
234 238
234 239
234 240
234 241
234 253
234 20
234 39
234 59
234 78
236 255
236 23
236 44
236 64
236 85
236 253
236 19
236 37
236 55
236 73
236 237
236 238
236 239
236 240
236 241
236 254
236 21
236 40
236 60
236 79
237 256
237 24
237 45
237 66
237 254
237 20
237 38
237 56
237 74
237 238
237 239
237 240
237 241
237 255
237 22
237 42
237 61
237 81
238 5
238 26
238 46
238 255
238 21
238 39
238 57
238 75
238 239
238 240
238 241
238 256
238 23
238 43
238 62
238 82
239 6
239 27
239 256
239 22
239 40
239 59
239 76
239 240
239 241
239 5
239 24
239 44
239 63
239 83
240 7
240 5
240 23
240 42
240 60
240 78
240 241
240 6
240 26
240 45
240 64
240 84
241 6
241 24
241 43
241 61
241 79
241 7
241 27
241 46
241 66
241 85
242 9
242 31
242 51
242 72
242 243
242 244
242 247
242 248
242 249
242 250
242 251
242 252
242 253
242 254
242 255
242 256
242 5
242 6
242 7
242 8
242 28
242 48
242 67
243 10
243 32
243 52
243 73
243 8
243 244
243 247
243 248
243 249
243 250
243 251
243 252
243 253
243 254
243 255
243 256
243 5
243 6
243 7
243 9
243 30
243 49
243 68
244 11
244 33
244 54
244 74
244 9
244 28
244 247
244 248
244 249
244 250
244 251
244 252
244 253
244 254
244 255
244 256
244 5
244 6
244 7
244 10
244 31
244 50
244 70
245 97
245 119
245 139
245 160
245 255
245 23
245 44
245 64
245 85
245 95
245 4
245 17
245 29
245 41
245 53
245 65
245 77
245 86
245 87
245 88
245 89
245 92
245 93
245 94
245 96
245 117
245 135
245 155
245 174
245 9
245 30
245 49
245 68
247 12
247 34
247 55
247 75
247 10
247 30
247 48
247 248
247 249
247 250
247 251
247 252
247 253
247 254
247 255
247 256
247 5
247 6
247 7
247 11
247 32
247 51
247 71
248 13
248 35
248 56
248 76
248 11
248 31
248 49
248 67
248 249
248 250
248 251
248 252
248 253
248 254
248 255
248 256
248 5
248 6
248 7
248 12
248 33
248 52
248 72
249 15
249 37
249 57
249 78
249 12
249 32
249 50
249 68
249 250
249 251
249 252
249 253
249 254
249 255
249 256
249 5
249 6
249 7
249 13
249 34
249 54
249 73
250 18
250 38
250 59
250 79
250 13
250 33
250 51
250 70
250 251
250 252
250 253
250 254
250 255
250 256
250 5
250 6
250 7
250 15
250 35
250 55
250 74
251 19
251 39
251 60
251 81
251 15
251 34
251 52
251 71
251 252
251 253
251 254
251 255
251 256
251 5
251 6
251 7
251 18
251 37
251 56
251 75
252 20
252 40
252 61
252 82
252 18
252 35
252 54
252 72
252 253
252 254
252 255
252 256
252 5
252 6
252 7
252 19
252 38
252 57
252 76
253 21
253 42
253 62
253 83
253 19
253 37
253 55
253 73
253 254
253 255
253 256
253 5
253 6
253 7
253 20
253 39
253 59
253 78
254 22
254 43
254 63
254 84
254 20
254 38
254 56
254 74
254 255
254 256
254 5
254 6
254 7
254 21
254 40
254 60
254 79
255 23
255 44
255 64
255 85
255 21
255 39
255 57
255 75
255 256
255 5
255 6
255 7
255 22
255 42
255 61
255 81
256 24
256 45
256 66
256 22
256 40
256 59
256 76
256 5
256 6
256 7
256 23
256 43
256 62
256 82
4 98
4 120
4 141
4 161
4 24
4 45
4 66
4 96
4 115
4 17
4 29
4 41
4 53
4 65
4 77
4 86
4 87
4 88
4 89
4 92
4 93
4 94
4 97
4 118
4 137
4 156
4 175
4 10
4 31
4 50
4 70
5 26
5 46
5 23
5 42
5 60
5 78
5 6
5 7
5 24
5 44
5 63
5 83
6 27
6 24
6 43
6 61
6 79
6 7
6 26
6 45
6 64
6 84
7 26
7 44
7 62
7 81
7 27
7 46
7 66
7 85
8 30
8 50
8 71
8 9
8 10
8 11
8 12
8 13
8 15
8 18
8 19
8 20
8 21
8 22
8 23
8 24
8 26
8 27
8 28
8 48
8 67
9 31
9 51
9 72
9 28
9 10
9 11
9 12
9 13
9 15
9 18
9 19
9 20
9 21
9 22
9 23
9 24
9 26
9 27
9 30
9 49
9 68
10 32
10 52
10 73
10 30
10 48
10 11
10 12
10 13
10 15
10 18
10 19
10 20
10 21
10 22
10 23
10 24
10 26
10 27
10 31
10 50
10 70
11 33
11 54
11 74
11 31
11 49
11 67
11 12
11 13
11 15
11 18
11 19
11 20
11 21
11 22
11 23
11 24
11 26
11 27
11 32
11 51
11 71
12 34
12 55
12 75
12 32
12 50
12 68
12 13
12 15
12 18
12 19
12 20
12 21
12 22
12 23
12 24
12 26
12 27
12 33
12 52
12 72
13 35
13 56
13 76
13 33
13 51
13 70
13 15
13 18
13 19
13 20
13 21
13 22
13 23
13 24
13 26
13 27
13 34
13 54
13 73
15 37
15 57
15 78
15 34
15 52
15 71
15 18
15 19
15 20
15 21
15 22
15 23
15 24
15 26
15 27
15 35
15 55
15 74
16 98
16 120
16 141
16 161
16 24
16 45
16 66
16 90
16 103
16 116
16 128
16 140
16 152
16 164
16 96
16 117
16 135
16 155
16 174
16 30
16 49
16 68
17 99
17 121
17 142
17 162
17 26
17 46
17 97
17 117
17 134
17 29
17 41
17 53
17 65
17 77
17 86
17 87
17 88
17 89
17 92
17 93
17 94
17 98
17 119
17 138
17 157
17 32
17 51
17 71
18 38
18 59
18 79
18 35
18 54
18 72
18 19
18 20
18 21
18 22
18 23
18 24
18 26
18 27
18 37
18 56
18 75
19 39
19 60
19 81
19 37
19 55
19 73
19 20
19 21
19 22
19 23
19 24
19 26
19 27
19 38
19 57
19 76
20 40
20 61
20 82
20 38
20 56
20 74
20 21
20 22
20 23
20 24
20 26
20 27
20 39
20 59
20 78
21 42
21 62
21 83
21 39
21 57
21 75
21 22
21 23
21 24
21 26
21 27
21 40
21 60
21 79
22 43
22 63
22 84
22 40
22 59
22 76
22 23
22 24
22 26
22 27
22 42
22 61
22 81
23 44
23 64
23 85
23 42
23 60
23 78
23 24
23 26
23 27
23 43
23 62
23 82
24 45
24 66
24 43
24 61
24 79
24 26
24 27
24 44
24 63
24 83
26 46
26 44
26 62
26 81
26 27
26 45
26 64
26 84
27 45
27 63
27 82
27 46
27 66
27 85
28 49
28 70
28 30
28 31
28 32
28 33
28 34
28 35
28 37
28 38
28 39
28 40
28 42
28 43
28 44
28 45
28 46
28 48
28 67
29 100
29 122
29 143
29 163
29 98
29 118
29 135
29 154
29 41
29 53
29 65
29 77
29 86
29 87
29 88
29 89
29 92
29 93
29 94
29 99
29 120
29 139
29 159
29 33
29 52
29 72
30 50
30 71
30 48
30 31
30 32
30 33
30 34
30 35
30 37
30 38
30 39
30 40
30 42
30 43
30 44
30 45
30 46
30 49
30 68
31 51
31 72
31 49
31 67
31 32
31 33
31 34
31 35
31 37
31 38
31 39
31 40
31 42
31 43
31 44
31 45
31 46
31 50
31 70
32 52
32 73
32 50
32 68
32 33
32 34
32 35
32 37
32 38
32 39
32 40
32 42
32 43
32 44
32 45
32 46
32 51
32 71
33 54
33 74
33 51
33 70
33 34
33 35
33 37
33 38
33 39
33 40
33 42
33 43
33 44
33 45
33 46
33 52
33 72
34 55
34 75
34 52
34 71
34 35
34 37
34 38
34 39
34 40
34 42
34 43
34 44
34 45
34 46
34 54
34 73
35 56
35 76
35 54
35 72
35 37
35 38
35 39
35 40
35 42
35 43
35 44
35 45
35 46
35 55
35 74
37 57
37 78
37 55
37 73
37 38
37 39
37 40
37 42
37 43
37 44
37 45
37 46
37 56
37 75
38 59
38 79
38 56
38 74
38 39
38 40
38 42
38 43
38 44
38 45
38 46
38 57
38 76
39 60
39 81
39 57
39 75
39 40
39 42
39 43
39 44
39 45
39 46
39 59
39 78
40 61
40 82
40 59
40 76
40 42
40 43
40 44
40 45
40 46
40 60
40 79
41 101
41 123
41 144
41 165
41 99
41 119
41 137
41 155
41 173
41 53
41 65
41 77
41 86
41 87
41 88
41 89
41 92
41 93
41 94
41 100
41 121
41 141
41 160
41 54
41 73
42 62
42 83
42 60
42 78
42 43
42 44
42 45
42 46
42 61
42 81
43 63
43 84
43 61
43 79
43 44
43 45
43 46
43 62
43 82
44 64
44 85
44 62
44 81
44 45
44 46
44 63
44 83
45 66
45 63
45 82
45 46
45 64
45 84
46 64
46 83
46 66
46 85
48 68
48 49
48 50
48 51
48 52
48 54
48 55
48 56
48 57
48 59
48 60
48 61
48 62
48 63
48 64
48 66
48 67
49 70
49 67
49 50
49 51
49 52
49 54
49 55
49 56
49 57
49 59
49 60
49 61
49 62
49 63
49 64
49 66
49 68
50 71
50 68
50 51
50 52
50 54
50 55
50 56
50 57
50 59
50 60
50 61
50 62
50 63
50 64
50 66
50 70
51 72
51 70
51 52
51 54
51 55
51 56
51 57
51 59
51 60
51 61
51 62
51 63
51 64
51 66
51 71
52 73
52 71
52 54
52 55
52 56
52 57
52 59
52 60
52 61
52 62
52 63
52 64
52 66
52 72
53 104
53 124
53 145
53 166
53 100
53 120
53 138
53 156
53 174
53 65
53 77
53 86
53 87
53 88
53 89
53 92
53 93
53 94
53 101
53 122
53 142
53 161
53 55
53 74
54 74
54 72
54 55
54 56
54 57
54 59
54 60
54 61
54 62
54 63
54 64
54 66
54 73
55 75
55 73
55 56
55 57
55 59
55 60
55 61
55 62
55 63
55 64
55 66
55 74
56 76
56 74
56 57
56 59
56 60
56 61
56 62
56 63
56 64
56 66
56 75
57 78
57 75
57 59
57 60
57 61
57 62
57 63
57 64
57 66
57 76
59 79
59 76
59 60
59 61
59 62
59 63
59 64
59 66
59 78
60 81
60 78
60 61
60 62
60 63
60 64
60 66
60 79
61 82
61 79
61 62
61 63
61 64
61 66
61 81
62 83
62 81
62 63
62 64
62 66
62 82
63 84
63 82
63 64
63 66
63 83
64 85
64 83
64 66
64 84
65 105
65 126
65 146
65 167
65 101
65 121
65 139
65 157
65 175
65 77
65 86
65 87
65 88
65 89
65 92
65 93
65 94
65 104
65 123
65 143
65 162
65 75
66 84
66 85
67 68
67 70
67 71
67 72
67 73
67 74
67 75
67 76
67 78
67 79
67 81
67 82
67 83
67 84
67 85
68 70
68 71
68 72
68 73
68 74
68 75
68 76
68 78
68 79
68 81
68 82
68 83
68 84
68 85
70 71
70 72
70 73
70 74
70 75
70 76
70 78
70 79
70 81
70 82
70 83
70 84
70 85
71 72
71 73
71 74
71 75
71 76
71 78
71 79
71 81
71 82
71 83
71 84
71 85
72 73
72 74
72 75
72 76
72 78
72 79
72 81
72 82
72 83
72 84
72 85
73 74
73 75
73 76
73 78
73 79
73 81
73 82
73 83
73 84
73 85
74 75
74 76
74 78
74 79
74 81
74 82
74 83
74 84
74 85
75 76
75 78
75 79
75 81
75 82
75 83
75 84
75 85
76 78
76 79
76 81
76 82
76 83
76 84
76 85
77 106
77 127
77 148
77 168
77 104
77 122
77 141
77 159
77 86
77 87
77 88
77 89
77 92
77 93
77 94
77 105
77 124
77 144
77 163
78 79
78 81
78 82
78 83
78 84
78 85
79 81
79 82
79 83
79 84
79 85
81 82
81 83
81 84
81 85
82 83
82 84
82 85
83 84
83 85
84 85
86 107
86 129
86 149
86 170
86 105
86 123
86 142
86 160
86 87
86 88
86 89
86 92
86 93
86 94
86 106
86 126
86 145
86 165
87 108
87 130
87 150
87 171
87 106
87 124
87 143
87 161
87 88
87 89
87 92
87 93
87 94
87 107
87 127
87 146
87 166
88 109
88 131
88 151
88 172
88 107
88 126
88 144
88 162
88 89
88 92
88 93
88 94
88 108
88 129
88 148
88 167
89 110
89 132
89 153
89 108
89 127
89 145
89 163
89 92
89 93
89 94
89 109
89 130
89 149
89 168
90 99
90 121
90 142
90 162
90 95
90 103
90 116
90 128
90 140
90 152
90 164
90 97
90 118
90 137
90 156
90 175
92 111
92 133
92 109
92 129
92 146
92 165
92 93
92 94
92 110
92 131
92 150
92 170
93 112
93 110
93 130
93 148
93 166
93 94
93 111
93 132
93 151
93 171
94 111
94 131
94 149
94 167
94 112
94 133
94 153
94 172
95 117
95 137
95 157
95 96
95 97
95 98
95 99
95 100
95 101
95 104
95 105
95 106
95 107
95 108
95 109
95 110
95 111
95 112
95 115
95 134
95 154
95 173
96 118
96 138
96 159
96 115
96 97
96 98
96 99
96 100
96 101
96 104
96 105
96 106
96 107
96 108
96 109
96 110
96 111
96 112
96 117
96 135
96 155
96 174
97 119
97 139
97 160
97 117
97 134
97 98
97 99
97 100
97 101
97 104
97 105
97 106
97 107
97 108
97 109
97 110
97 111
97 112
97 118
97 137
97 156
97 175
98 120
98 141
98 161
98 118
98 135
98 154
98 99
98 100
98 101
98 104
98 105
98 106
98 107
98 108
98 109
98 110
98 111
98 112
98 119
98 138
98 157
99 121
99 142
99 162
99 119
99 137
99 155
99 173
99 100
99 101
99 104
99 105
99 106
99 107
99 108
99 109
99 110
99 111
99 112
99 120
99 139
99 159
100 122
100 143
100 163
100 120
100 138
100 156
100 174
100 101
100 104
100 105
100 106
100 107
100 108
100 109
100 110
100 111
100 112
100 121
100 141
100 160
101 123
101 144
101 165
101 121
101 139
101 157
101 175
101 104
101 105
101 106
101 107
101 108
101 109
101 110
101 111
101 112
101 122
101 142
101 161
103 122
103 143
103 163
103 115
103 116
103 128
103 140
103 152
103 164
103 119
103 138
103 157
104 124
104 145
104 166
104 122
104 141
104 159
104 105
104 106
104 107
104 108
104 109
104 110
104 111
104 112
104 123
104 143
104 162
105 126
105 146
105 167
105 123
105 142
105 160
105 106
105 107
105 108
105 109
105 110
105 111
105 112
105 124
105 144
105 163
106 127
106 148
106 168
106 124
106 143
106 161
106 107
106 108
106 109
106 110
106 111
106 112
106 126
106 145
106 165
107 129
107 149
107 170
107 126
107 144
107 162
107 108
107 109
107 110
107 111
107 112
107 127
107 146
107 166
108 130
108 150
108 171
108 127
108 145
108 163
108 109
108 110
108 111
108 112
108 129
108 148
108 167
109 131
109 151
109 172
109 129
109 146
109 165
109 110
109 111
109 112
109 130
109 149
109 168
110 132
110 153
110 130
110 148
110 166
110 111
110 112
110 131
110 150
110 170
111 133
111 131
111 149
111 167
111 112
111 132
111 151
111 171
112 132
112 150
112 168
112 133
112 153
112 172
115 135
115 156
115 117
115 118
115 119
115 120
115 121
115 122
115 123
115 124
115 126
115 127
115 129
115 130
115 131
115 132
115 133
115 134
115 154
115 173
116 123
116 144
116 165
116 117
116 134
116 128
116 140
116 152
116 164
116 120
116 139
116 159
117 137
117 157
117 134
117 118
117 119
117 120
117 121
117 122
117 123
117 124
117 126
117 127
117 129
117 130
117 131
117 132
117 133
117 135
117 155
117 174
118 138
118 159
118 135
118 154
118 119
118 120
118 121
118 122
118 123
118 124
118 126
118 127
118 129
118 130
118 131
118 132
118 133
118 137
118 156
118 175
119 139
119 160
119 137
119 155
119 173
119 120
119 121
119 122
119 123
119 124
119 126
119 127
119 129
119 130
119 131
119 132
119 133
119 138
119 157
120 141
120 161
120 138
120 156
120 174
120 121
120 122
120 123
120 124
120 126
120 127
120 129
120 130
120 131
120 132
120 133
120 139
120 159
121 142
121 162
121 139
121 157
121 175
121 122
121 123
121 124
121 126
121 127
121 129
121 130
121 131
121 132
121 133
121 141
121 160
122 143
122 163
122 141
122 159
122 123
122 124
122 126
122 127
122 129
122 130
122 131
122 132
122 133
122 142
122 161
123 144
123 165
123 142
123 160
123 124
123 126
123 127
123 129
123 130
123 131
123 132
123 133
123 143
123 162
124 145
124 166
124 143
124 161
124 126
124 127
124 129
124 130
124 131
124 132
124 133
124 144
124 163
126 146
126 167
126 144
126 162
126 127
126 129
126 130
126 131
126 132
126 133
126 145
126 165
127 148
127 168
127 145
127 163
127 129
127 130
127 131
127 132
127 133
127 146
127 166
128 145
128 166
128 135
128 154
128 140
128 152
128 164
128 141
128 160
129 149
129 170
129 146
129 165
129 130
129 131
129 132
129 133
129 148
129 167
130 150
130 171
130 148
130 166
130 131
130 132
130 133
130 149
130 168
131 151
131 172
131 149
131 167
131 132
131 133
131 150
131 170
132 153
132 150
132 168
132 133
132 151
132 171
133 151
133 170
133 153
133 172
134 155
134 175
134 135
134 137
134 138
134 139
134 141
134 142
134 143
134 144
134 145
134 146
134 148
134 149
134 150
134 151
134 153
134 154
134 173
135 156
135 154
135 137
135 138
135 139
135 141
135 142
135 143
135 144
135 145
135 146
135 148
135 149
135 150
135 151
135 153
135 155
135 174
137 157
137 155
137 173
137 138
137 139
137 141
137 142
137 143
137 144
137 145
137 146
137 148
137 149
137 150
137 151
137 153
137 156
137 175
138 159
138 156
138 174
138 139
138 141
138 142
138 143
138 144
138 145
138 146
138 148
138 149
138 150
138 151
138 153
138 157
139 160
139 157
139 175
139 141
139 142
139 143
139 144
139 145
139 146
139 148
139 149
139 150
139 151
139 153
139 159
140 146
140 167
140 155
140 173
140 152
140 164
140 142
140 161
141 161
141 159
141 142
141 143
141 144
141 145
141 146
141 148
141 149
141 150
141 151
141 153
141 160
142 162
142 160
142 143
142 144
142 145
142 146
142 148
142 149
142 150
142 151
142 153
142 161
143 163
143 161
143 144
143 145
143 146
143 148
143 149
143 150
143 151
143 153
143 162
144 165
144 162
144 145
144 146
144 148
144 149
144 150
144 151
144 153
144 163
145 166
145 163
145 146
145 148
145 149
145 150
145 151
145 153
145 165
146 167
146 165
146 148
146 149
146 150
146 151
146 153
146 166
148 168
148 166
148 149
148 150
148 151
148 153
148 167
149 170
149 167
149 150
149 151
149 153
149 168
150 171
150 168
150 151
150 153
150 170
151 172
151 170
151 153
151 171
152 168
152 156
152 174
152 164
152 162
153 171
153 172
154 174
154 155
154 156
154 157
154 159
154 160
154 161
154 162
154 163
154 165
154 166
154 167
154 168
154 170
154 171
154 172
154 173
155 175
155 173
155 156
155 157
155 159
155 160
155 161
155 162
155 163
155 165
155 166
155 167
155 168
155 170
155 171
155 172
155 174
156 174
156 157
156 159
156 160
156 161
156 162
156 163
156 165
156 166
156 167
156 168
156 170
156 171
156 172
156 175
157 175
157 159
157 160
157 161
157 162
157 163
157 165
157 166
157 167
157 168
157 170
157 171
157 172
159 160
159 161
159 162
159 163
159 165
159 166
159 167
159 168
159 170
159 171
159 172
160 161
160 162
160 163
160 165
160 166
160 167
160 168
160 170
160 171
160 172
161 162
161 163
161 165
161 166
161 167
161 168
161 170
161 171
161 172
162 163
162 165
162 166
162 167
162 168
162 170
162 171
162 172
163 165
163 166
163 167
163 168
163 170
163 171
163 172
164 170
164 175
165 166
165 167
165 168
165 170
165 171
165 172
166 167
166 168
166 170
166 171
166 172
167 168
167 170
167 171
167 172
168 170
168 171
168 172
170 171
170 172
171 172
173 174
173 175
174 175
